c RoundingSat 2
c branch HEAD
c commit c548e10
c #variables 32 #constraints 287
c cpu time 0.006439 s
c deterministic time 740562 7.41e+05
c optimization time 9e-06 s
c total solve time 0.00568 s
c core-guided solve time 0 s
c propagation time 0.002977 s
c conflict analysis time 0.002068 s
c propagations 10595
c resolve steps 3846
c decisions 1284
c conflicts 998
c restarts 6
c inprocessing phases 0
c input clauses 286
c input cardinalities 1
c input general constraints 0
c input average constraint length 9.31
c input average constraint degree 1.07
c learned clauses 542
c learned cardinalities 182
c learned general constraints 274
c learned average constraint length 13.06
c learned average constraint degree 4.91
c watched constraints 104
c counting constraints 170
c gcd simplifications 25
c detected cardinalities 43
c weakened non-implied lits 5636
c weakened non-implying lits 6
c original variables 32
c clausal propagations 2716
c cardinality propagations 4338
c watched propagations 182
c counting propagations 1638
c watch lookups 209598
c watch backjump lookups 93635
c watch checks 278650
c propagation checks 77531
c constraint additions 56391
c trail pops 12877
c formula constraints 287
c learned constraints 998
c bound constraints 0
c core-guided constraints 0
c encountered formula constraints 2227
c encountered learned constraints 2617
c encountered bound constraints 0
c encountered core-guided constraints 0
c LP total time 0 s
c LP solve time 0 s
c LP constraints added 0
c LP constraints removed 0
c LP pivots internal 0
c LP pivots root 0
c LP calls 0
c LP optimalities 0
c LP no pivot count 0
c LP infeasibilities 0
c LP valid Farkas constraints 0
c LP learned Farkas constraints 0
c LP basis resets 0
c LP cycling count 0
c LP singular count 0
c LP no primal count 0
c LP no farkas count 0
c LP other issue count 0
c LP Gomory cuts 0
c LP learned cuts 0
c LP deleted cuts 0
c LP encountered Gomory constraints 0
c LP encountered Farkas constraints 0
c LP encountered learned Farkas constraints 0
c CG auxiliary variables introduced 0
c CG solutions found 0
c CG cores constructed 0
c CG core cardinality constraints returned 0
c CG unit cores 0
c CG single cores 0
c CG blocks removed during cardinality reduction 0
c CG first core best 0
c CG decision core best 0
c CG core reduction tie 0
c CG core degree average 0.00
c CG core slack average 0.00
s SATISFIABLE
v -x1 -x2 -x3 -x4 x5 x6 -x7 -x8 -x9 x10 -x11 -x12 -x13 x14 -x15 x16 -x17 -x18 x19 -x20 x21 -x22 -x23 -x24 x25 -x26 -x27 x28 x29 -x30 -x31 -x32
